Linux optc-09-10 4.15.0-58-generic #64-Ubuntu SMP Tue Aug 6 11:12:41 UTC 2019 x86_64 x86_64 x86_64 GNU/Linux

top - 00:22:15 up 1 day, 14:22,  0 users,  load average: 0,92, 0,99, 0,99
Tasks: 291 gesamt,   1 laufend, 149 schlafend,   0 gestoppt,   0 Zombie
%CPU(s):  7,1 be,  0,3 sy,  0,0 ni, 92,6 un,  0,0 wa,  0,0 hi,  0,0 si,  0,0 st
KiB Spch : 97514992 gesamt, 95461504 frei,   649116 belegt,  1404376 Puff/Cache
KiB Swap:  8388604 gesamt,  8388604 frei,        0 belegt. 96124368 verfü Spch 

  PID USER      PR  NI    VIRT    RES    SHR S  %CPU %MEM     ZEIT+ BEFEHL
17248 bzfhende  20   0   52664   4116   3372 R   6,7  0,0   0:00.01 top
    1 root      20   0  225668   9424   6732 S   0,0  0,0   0:12.91 systemd
    2 root      20   0       0      0      0 S   0,0  0,0   0:00.15 kthreadd
    4 root       0 -20       0      0      0 I   0,0  0,0   0:00.00 kworker/0:+
    6 root      20   0       0      0      0 I   0,0  0,0   0:00.00 kworker/u3+
    7 root       0 -20       0      0      0 I   0,0  0,0   0:00.00 mm_percpu_+
    8 root      20   0       0      0      0 S   0,0  0,0   0:00.00 ksoftirqd/0
    9 root      20   0       0      0      0 I   0,0  0,0   0:14.68 rcu_sched

hard time limit: 04:10:00
hard mem limit: 55100

SLURM jobID: 2182738

@01 /nfs/optimi/kombadon/IP/coral/neos-619167.mps.gz ===========
-----------------------------
Fr 23. Aug 00:22:15 CEST 2019
-----------------------------
@03 1566512535
@05 7200
SCIP version 6.0.0 [precision: 8 byte] [memory: block] [mode: optimized] [LP solver: CPLEX 12.8.0.0] [GitHash: 41ab6e0014]
Copyright (C) 2002-2018 Konrad-Zuse-Zentrum fuer Informationstechnik Berlin (ZIB)

External codes: 
  Readline 7.0         GNU library for command line editing (gnu.org/s/readline)
  CPLEX 12.8.0.0       Linear Programming Solver developed by IBM (www.cplex.com)
  CppAD 20180000.0     Algorithmic Differentiation of C++ algorithms developed by B. Bell (www.coin-or.org/CppAD)
  ZLIB 1.2.11          General purpose compression library by J. Gailly and M. Adler (zlib.net)
  GMP 6.1.2            GNU Multiple Precision Arithmetic Library developed by T. Granlund (gmplib.org)
  bliss 0.73p          Computing Graph Automorphism Groups by T. Junttila and P. Kaski (http://www.tcs.hut.fi/Software/bliss/)

user parameter file <scip.set> not found - using default parameters

SCIP> 
SCIP> set load /home/optimi/bzfhende/opti/scip-opti/check/../settings/enable_treeeprofile.set
loaded parameter file </home/optimi/bzfhende/opti/scip-opti/check/../settings/enable_treeprofile.set>
SCIP> set misc referencevalue 2.14159294
misc/referencevalue = 2.14159294
SCIP> set limits time 7200
limits/time = 7200
SCIP> set limits nodes 2100000000
limits/nodes = 2100000000
SCIP> set limits memory 50000
limits/memory = 50000
SCIP> set lp advanced threads 1
lp/threads = 1
SCIP> set timing clocktype 1
timing/clocktype = 1
SCIP> set display freq 10000
display/freq = 10000
SCIP> set memory savefac 1.0
memory/savefac = 1
SCIP> set save /home/optimi/bzfhende/opti/scip-opti/check/treesize.estimation.jouurnal.3/bzfhende.MMMc.274_neos-619167.scip.M640.enable_treeprofile.set
saved parameter file </home/optimi/bzfhende/opti/scip-opti/check/treesize.estimation.journal.3/bzfhende.MMMc.274_neos-619167.scip.M640.enable_treeprofile.set>
SCIP> read /nfs/optimi/kombadon/IP/coral/neos-619167.mps.gz

read problem </nfs/optimi/kombadon/IP/coral/neos-619167.mps.gz>
============

original problem has 3452 variables (400 bin, 0 int, 0 impl, 3052 cont) and 6800 constraints
SCIP> display parameters

number of parameters = 2448
non-default parameter settings:
display/freq = 10000
limits/time = 7200
limits/nodes = 2100000000
limits/memory = 50000
lp/threads = 1
memory/savefac = 1
misc/referencevalue = 2.14159294
presolving/maxrestarts = 0
estimates/profile/enabled = TRUE
estimates/profile/maxdepthfactor = 10
estimates/profile/freq = 0

SCIP> optimize

Activating tree profile data collection
presolving:
(round 1, fast)       0 del vars, 0 del conss, 0 add conss, 560 chg bounds, 0 chg sides, 0 chg coeffs, 0 upgd conss, 0 impls, 0 clqs
(round 2, exhaustive) 0 del vars, 0 del conss, 0 add conss, 560 chg bounds, 0 chg sides, 0 chg coeffs, 400 upgd conss, 0 impls, 0 clqs
   (0.1s) probing cycle finished: starting next cycle
presolving (3 rounds: 3 fast, 2 medium, 2 exhaustive):
 0 deleted vars, 0 deleted constraints, 0 added constraints, 560 tightened bounds, 0 added holes, 0 changed sides, 0 changed coefficients
 1096 implications, 48 cliques
presolved problem has 3452 variables (400 bin, 0 int, 0 impl, 3052 cont) and 6800 constraints
    400 constraints of type <varbound>
   6400 constraints of type <linear>
Presolving Time: 0.07

 time | node  | left  |LP iter|LP it/n| mem |mdpt |frac |vars |cons |cols |rows |cuts |confs|strbr|  dualbound   | primalbound  |  gap   
k 0.1s|     1 |     0 |   788 |     - |  29M|   0 |   - |3452 |6800 |3452 |6800 |   0 |   0 |   0 | 1.000000e+00 | 4.000000e+00 | 300.00%
  0.4s|     1 |     0 |  3280 |     - |  30M|   0 | 164 |3452 |6800 |3452 |6800 |   0 |   0 |   0 | 1.481241e+00 | 4.000000e+00 | 170.04%
  0.4s|     1 |     0 |  3280 |     - |  30M|   0 | 164 |3452 |6800 |3452 |6800 |   0 |   0 |   0 | 1.481241e+00 | 4.000000e+00 | 170.04%
  0.5s|     1 |     0 |  3425 |     - |  31M|   0 | 156 |3452 |6800 |3452 |6858 |  58 |   0 |   0 | 1.481241e+00 | 4.000000e+00 | 170.04%
  0.6s|     1 |     0 |  4168 |     - |  31M|   0 | 167 |3452 |6800 |3452 |6860 |  60 |   0 |   0 | 1.481241e+00 | 4.000000e+00 | 170.04%
  0.8s|     1 |     0 |  4398 |     - |  32M|   0 | 154 |3452 |6800 |3452 |6931 | 131 |   0 |   0 | 1.481241e+00 | 4.000000e+00 | 170.04%
  0.9s|     1 |     0 |  4693 |     - |  33M|   0 | 151 |3452 |6801 |3452 |6939 | 139 |   1 |   0 | 1.481241e+00 | 4.000000e+00 | 170.04%
  1.0s|     1 |     0 |  4805 |     - |  34M|   0 | 132 |3452 |6801 |3452 |6949 | 149 |   1 |   0 | 1.481241e+00 | 4.000000e+00 | 170.04%
  1.1s|     1 |     0 |  4854 |     - |  35M|   0 | 131 |3452 |6802 |3452 |6959 | 159 |   2 |   0 | 1.481241e+00 | 4.000000e+00 | 170.04%
  1.2s|     1 |     0 |  4858 |     - |  35M|   0 | 131 |3452 |6802 |3452 |6963 | 163 |   2 |   0 | 1.481241e+00 | 4.000000e+00 | 170.04%
F 1.7s|     1 |     0 |  5761 |     - |  37M|   0 |   0 |3452 |6803 |3452 |6963 | 163 |   2 |   0 | 1.481241e+00 | 2.969325e+00 | 100.46%
  1.9s|     1 |     0 |  5761 |     - |  37M|   0 | 131 |3452 |6803 |3452 |6963 | 163 |   2 |   0 | 1.481241e+00 | 2.969325e+00 | 100.46%
  1.9s|     1 |     0 |  5808 |     - |  37M|   0 | 148 |3452 |6803 |3452 |6965 | 165 |   2 |   0 | 1.481241e+00 | 2.969325e+00 | 100.46%
  1.9s|     1 |     0 |  5843 |     - |  37M|   0 | 135 |3452 |6803 |3452 |6969 | 169 |   2 |   0 | 1.481241e+00 | 2.969325e+00 | 100.46%
SCIP nodes: 1 Estimation: -1
  5.2s|     1 |     2 |  5843 |     - |  37M|   0 | 135 |3452 |6803 |3452 |6969 | 169 |   2 |  61 | 1.538595e+00 | 2.969325e+00 |  92.99%
   (5.3s) symmetry computation started: requiring (bin +, int -, cont -), (fixed: bin -, int +, cont -)
   (5.3s) no symmetry present
SCIP nodes: 2 Estimation: -1
SCIP nodes: 4 Estimation: -1
Report 1
Time Elapsed: 8.01
  Tree Data        : 7 nodes (4 visited, 3 inner, 1 leaves, 3 open), progress: 0.1250
Tree Estimation    :       estim       value       trend  resolution      smooth
  wbe              :          -1           -           -           -           -
  tree profile     :          -1           -           -           -           -
  gap              :           3     0.51816     0.51816           1           3
  progress         :          15     0.12500     0.12500           1          15
  leaf-frequency   :           2     0.12500     0.62500           1           2
  ssg              :         620     0.99678    -0.00322           1         620
  open-nodes       :           8     3.00000     3.00000           1           8
End of Report 1

SCIP nodes: 8 Estimation: -1
SCIP nodes: 16 Estimation: -1
SCIP nodes: 32 Estimation: -1
SCIP nodes: 64 Estimation: -1
SCIP nodes: 128 Estimation: -1
 time | node  | left  |LP iter|LP it/n| mem |mdpt |frac |vars |cons |cols |rows |cuts |confs|strbr|  dualbound   | primalbound  |  gap   
L 169s|   148 |   127 |383576 |2581.1 |  65M|  36 |  86 |3452 |6846 |3452 |6980 | 635 |  30 | 578 | 1.538595e+00 | 2.955018e+00 |  92.06%
Report 2
Time Elapsed: 184.75
  Tree Data        : 297 nodes (161 visited, 148 inner, 13 leaves, 136 open), progress: 0.1896
Tree Estimation    :       estim       value       trend  resolution      smooth
  wbe              :         188           -           -           -           -
  tree profile     :          -1           -           -           -           -
  gap              :          40     0.52067     0.06368           1          39
  progress         :          99     0.18964     0.02184           1         102
  leaf-frequency   :         322     0.07764    -0.00083           1         318
  ssg              :         209     0.98717    -0.01070           1         203
  open-nodes       :         322   136.00000     6.92663           1         318
End of Report 2

Report 3
Time Elapsed: 192.56
  Tree Data        : 307 nodes (167 visited, 153 inner, 14 leaves, 140 open), progress: 0.1901
Tree Estimation    :       estim       value       trend  resolution      smooth
  wbe              :         136           -           -           -           -
  tree profile     :          -1           -           -           -           -
  gap              :          45     0.52067     0.05340           1          43
  progress         :         113     0.19013     0.01878           1         110
  leaf-frequency   :        4908     0.08084     0.00017           1        3760
  ssg              :         246     0.98717    -0.00903           1         235
  open-nodes       :         334   140.00000     6.17114           1         330
End of Report 3

SCIP nodes: 256 Estimation: -1
N 363s|   348 |   293 |  1018k|2922.4 |  75M|  36 |  76 |3452 |6869 |3452 |6941 | 976 |  50 | 874 | 1.538640e+00 | 2.524793e+00 |  64.09%
SCIP nodes: 512 Estimation: 638.139
C 560s|   548 |   461 |  1726k|3148.6 |  85M|  36 |  50 |3452 |6911 |3452 |6941 |1556 |  78 |1110 | 1.542420e+00 | 2.438017e+00 |  58.06%
Report 4
Time Elapsed: 596.23
  Tree Data        : 1117 nodes (611 visited, 558 inner, 53 leaves, 506 open), progress: 0.2003
Tree Estimation    :       estim       value       trend  resolution      smooth
  wbe              :         519           -           -           -           -
  tree profile     :         638           -           -           -           -
  gap              :        1102     0.63376     0.00073           1        1051
  progress         :       15512     0.20034     0.00010           1       17533
  leaf-frequency   :        3327     0.08592     0.00026           1        3389
  ssg              :       17711     0.98007    -0.00011           1       16850
  open-nodes       :        1222   506.00000     3.00518           1        1218
End of Report 4

SCIP nodes: 1024 Estimation: 1438.2
@04 1566513656
-----------------------------
Fr 23. Aug 00:40:56 CEST 2019
-----------------------------

=ready=
